100
128
47
10
56
4
27
3
39
22
7
11
23
2
13
20
4
23
41
1
9
13
27
41
2
30
44
32
39
58
46
1
11
45
10
39
4
59
2
2
29
44
35
34
29
11
3
62
39
61
40
48
43
43
13
58
64
39
52
6
49
51
31
53
39
15
4
3
5
39
60
11
17
39
44
44
59
59
11
5
9
34
64
46
46
5
61
64
41
45
53
52
64
3
30
18
3
41
1
19
36
63